n_res = 4;
rc = [ 18, 33, 33, 22 ];
n_tasks = 30;
d = [ 3, 1, 6, 6, 4, 10, 8, 9, 5, 8, 5, 2, 2, 5, 4, 8, 4, 3, 10, 7, 3, 6, 6, 4, 9, 9, 9, 7, 9, 6 ];
rr = [| 18, 18, 18, 18, 18, 18, 18, 18, 18, 18, 18, 18, 18, 18, 18, 18, 18, 18, 18, 18, 18, 18, 18, 18, 18, 18, 18, 18, 18, 18
      | 33, 33, 33, 33, 33, 33, 33, 33, 33, 33, 33, 33, 33, 33, 33, 33, 33, 33, 33, 33, 33, 33, 33, 33, 33, 33, 33, 33, 33, 33
      | 33, 33, 33, 33, 33, 33, 33, 33, 33, 33, 33, 33, 33, 33, 33, 33, 33, 33, 33, 33, 33, 33, 33, 33, 33, 33, 33, 33, 33, 33
      | 22, 22, 22, 22, 22, 22, 22, 22, 22, 22, 22, 22, 22, 22, 22, 22, 22, 22, 22, 22, 22, 22, 22, 22, 22, 22, 22, 22, 22, 22|];
suc = [ { 4, 12 },
       { 5, 7, 20 },
       { 11, 30 },
       { 8, 14 },
       { 6, 10, 13 },
       { 9, 23, 29 },
       { 15 },
       { 16 },
       { 26 },
       { 15 },
       { 15, 19 },
       { 19, 26 },
       { 16, 19 },
       { 18 },
       { 22, 29 },
       { 17, 18 },
       { 21, 24 },
       { 25 },
       { 28 },
       { 22 },
       { 30 },
       { 27 },
       { 25 },
       { 25 },
       { 26 },
       { 30 },
       { 28 },
       {  },
       {  },
       {  } ];
